c This Formular is generated by mcnf
c
c    horn? no 
c    forced? no 
c    mixed sat? no 
c    clause length = 3 
c
p cnf 20  91 
 -2 17 3 0
-2 -4 3 0
-15 1 -8 0
-9 -16 -1 0
9 -5 14 0
-9 14 20 0
19 8 5 0
-4 -15 2 0
5 -1 -3 0
-1 -6 -4 0
-18 -3 -10 0
19 -13 4 0
5 17 -19 0
-14 12 -17 0
-18 13 -20 0
9 8 5 0
4 14 -7 0
3 -6 17 0
-2 -8 7 0
16 -8 -2 0
-15 1 2 0
%
0

24 98 48 22 95 1 7 5 8 27 60 51 44 19 99 32 62 74 55 51
